NAME : tsp_253_sol.txt
COMMENT : OR-Tools Guided Local Search
TYPE : TOUR
DIMENSION : 50
COST : 5630
STATUS : ROUTING_SUCCESS
GAP : 0.00% (Reference Solution)
TOUR_SECTION
1
30
16
19
45
24
12
17
28
42
4
27
6
13
40
22
37
14
9
18
2
15
7
46
10
11
32
49
47
50
34
8
38
20
36
39
25
21
23
48
3
26
31
43
29
33
41
44
35
5
-1
